
  22    4
  10   10   10   10

   0   0   0   0   0   4 2 3 5 6 
   1  10  10  10  10   2 8 4 
   9  10  10  10  10   3 12 8 7 
   2  10  10  10  10   2 12 7 
   7  10  10  10  10   2 15 7 
  10  10  10  10  10   4 15 12 11 9 
   5  10  10  10  10   3 11 10 9 
   7  10  10  10  10   4 15 14 13 11 
   8  10  10  10  10   3 17 14 13 
   8  10  10  10  10   3 18 17 14 
   4  10  10  10  10   3 18 17 16 
   8  10  10  10  10   2 17 14 
   3  10  10  10  10   2 18 16 
   7  10  10  10  10   1 16 
   1  10  10  10  10   1 17 
   8  10  10  10  10   2 21 19 
   8  10  10  10  10   2 20 19 
   2  10  10  10  10   1 20 
   8  10  10  10  10   1 22
  10  10  10  10  10   1 22
   9  10  10  10  10   1 22
   0   0   0   0   0   0 
